c ---- [ banner ] ------------------------------------------------------------
c
c Kissat SAT Solver
c 
c Copyright (c) 2021-2023 Armin Biere University of Freiburg
c Copyright (c) 2019-2021 Armin Biere Johannes Kepler University Linz
c 
c Version 3.1.1 unknown
c gcc (Ubuntu 9.4.0-1ubuntu1~20.04.2) 9.4.0 -W -Wall -O3 -DNDEBUG
c Mon Feb 26 18:18:52 CET 2024 Linux OptiPlex-7080 5.15.0-88-generic x86_64
c
c ---- [ parsing ] -----------------------------------------------------------
c
c opened and reading DIMACS file:
c
c   /home/oliveras/SAT-comp-2023//5437ba8972228ea5531a69a9aa064acc-satcoin-genesis-UNSAT-19800.cnf
c
c parsed 'p cnf 134781 648806' header
c closing input after reading 14384710 bytes (14 MB)
c finished parsing after 0.22 seconds
c
c ---- [ options ] -----------------------------------------------------------
c
c --seed=1                         (different from default '0')
c
c ---- [ solving ] -----------------------------------------------------------
c
c  seconds switched conflicts    irredundant  variables
c         MB reductions redundant        trail      remaining
c          level restarts    binary         glue
c
c *  0.22 46 0 0 0  0   0   0 51675 596986 0% 0 125485 93%
c {  0.22 46 0 0 0  0   0   0 51675 596986 0% 0 125485 93%
c i  0.22 46 5 0 0  0   1   0 51675 596986 0% 0 125475 93%
c -  0.56 50 349 0 1 275 1002 440 51098 596986 4% 14 125475 93%
c }  0.56 50 349 1 1 275 1002 440 51098 596986 4% 14 125475 93%
c [  0.56 50 0 1 1 275 1002 440 51098 596986 0% 0 125475 93%
c B  0.57 50 0 1 1 275 1002 440 51098 596986 0% 0 125475 93%
c ]  0.82 50 734 2 1 275 1145 577 51103 596986 23% 22 125475 93%
c {  0.83 51 349 2 1 275 1145 577 51103 596986 4% 14 125475 93%
c i  0.87 53 442 2 1 291 1914 1262 51148 596986 3% 13 125473 93%
c -  0.88 53 434 2 2 299 2002 796 51147 596986 3% 13 125473 93%
c }  0.89 53 420 3 2 310 2145 927 51147 596986 3% 13 125473 93%
c [  0.89 53 734 3 2 310 2145 927 51147 596986 23% 22 125473 93%
c W  0.98 56 734 3 2 310 2145 927 51147 596005 23% 22 125473 93%
c ]  1.04 56 680 4 2 310 2192 974 51147 596005 19% 109 125473 93%
c {  1.04 56 420 4 2 310 2192 974 51147 596005 3% 13 125473 93%
c i  1.04 56 423 4 2 310 2195 976 51147 596005 3% 13 125472 93%
c i  1.04 56 427 4 2 310 2197 977 51147 596005 3% 13 125466 93%
c d 24.20 61 293 4 2 336 3378 2110 51605 595460 25% 11 125437 93%
c d 24.22 61 293 4 2 336 3378 2110 51233 595459 25% 11 125251 93%
c
c  seconds   switched conflicts       irredundant    variables
c         MB  reductions   redundant           trail       remaining
c           level restarts        binary           glue
c
c b 24.24 61 293 4 2 336 3378 2110 51233 595459 25% 11 125227 93%
c u 24.27 61 293 4 2 336 3378 2108 51235 595459 25% 11 125227 93%
c v 24.71 61 293 4 2 336 3378 2108 51235 595459 25% 11 125227 93%
c w 25.31 64 293 4 2 336 3378 2357 55464 589547 25% 11 124919 93%
c = 25.85 64 293 4 2 336 3378 2357 60376 588631 25% 11 122534 91%
c d 25.88 64 293 4 2 336 3378 2353 55739 588212 25% 11 122533 91%
c d 25.90 64 293 4 2 336 3378 2353 55727 588212 25% 11 122527 91%
c t 25.94 64 293 4 2 336 3378 2353 47754 588212 25% 11 122527 91%
c i 25.95 64 293 4 2 336 3378 2353 47754 588212 25% 11 122527 91%
c - 25.96 64 313 4 3 336 3417 1586 47205 588212 25% 11 122527 91%
c } 27.01 64 599 5 3 340 4544 2640 47228 588212 20% 11 122527 91%
c [ 27.01 64 680 5 3 340 4544 2640 47228 588212 19% 109 122527 91%
c I 27.01 64 680 5 3 340 4544 2640 47228 588212 19% 109 122527 91%
c - 27.42 66 543 5 4 340 5150 2044 47228 588212 11% 68 122527 91%
c u 27.77 66 521 5 4 342 6745 3510 47351 588212 8% 49 122527 91%
c v 27.92 66 521 5 4 342 6745 3510 47351 588212 8% 49 122527 91%
c w 28.13 66 521 5 4 342 6745 3527 47352 588194 8% 49 122527 91%
c = 28.28 66 521 5 4 342 6745 3527 47830 588194 8% 49 122288 91%
c d 28.32 66 521 5 4 342 6745 3527 47351 588194 8% 49 122288 91%
c t 28.36 66 521 5 4 342 6745 3527 46755 588194 8% 49 122288 91%
c
c  seconds   switched conflicts       irredundant   variables
c         MB  reductions   redundant          trail       remaining
c           level restarts        binary          glue
c
c - 28.39 66 497 5 5 342 7150 2130 46756 588194 8% 44 122288 91%
c B 28.43 66 457 5 5 342 8315 3278 46756 588194 7% 39 122288 91%
c - 28.50 66 432 5 6 343 9386 2307 46758 588194 6% 35 122288 91%
c - 28.67 66 403 5 7 345 11836 2613 46758 588194 6% 31 122288 91%
c u 28.95 66 378 5 7 346 13748 4386 46769 588194 6% 32 122288 91%
c v 29.00 66 378 5 7 346 13748 4386 46769 588194 6% 32 122288 91%
c w 29.18 66 378 5 7 346 13748 4411 46769 588169 6% 32 122288 91%
c = 29.25 66 378 5 7 346 13748 4411 46939 588169 6% 32 122203 91%
c d 29.29 66 378 5 7 346 13748 4411 46769 588169 6% 32 122203 91%
c t 29.32 66 378 5 7 346 13748 4411 46611 588169 6% 32 122203 91%
c W 29.68 68 377 5 7 346 13845 4501 46612 588169 6% 31 122203 91%
c - 30.57 68 369 5 8 346 14482 2804 46612 588169 6% 34 122203 91%
c 2 37.46 70 348 5 8 346 16890 5210 46592 588169 8% 47 122203 91%
c s 37.60 70 348 5 8 346 16890 5210 46857 585361 8% 47 122203 91%
c e 38.56 80 348 5 8 346 16890 5210 8337 567529 8% 47 83514 62%
c 2 38.56 80 348 5 8 346 16890 5210 8336 567529 8% 47 83514 62%
c s 38.62 80 348 5 8 346 16890 5210 8523 550624 8% 47 83514 62%
c e 38.76 80 348 5 8 346 16890 5210 8173 550686 8% 47 83324 62%
c ^ 38.76 80 348 5 8 346 16890 5210 8173 550686 8% 47 83324 62%
c - 41.16 76 346 5 9 347 17310 1531 8173 550686 9% 52 83324 62%
c
c  seconds   switched  conflicts      irredundant    variables
c         MB  reductions    redundant          trail      remaining
c           level restarts         binary          glue
c
c ] 47.49 76 341 6 9 348 18360 2580 8174 550686 11% 64 83324 62%
c { 47.49 76 599 6 9 348 18360 2580 8174 550686 20% 11 83324 62%
c - 47.88 76 512 6 10 544 20312 2567 8203 550686 14% 11 83324 62%
c } 48.09 78 450 7 10 544 22430 4617 8214 550686 11% 10 83324 62%
c [ 48.09 78 341 7 10 544 22430 4617 8214 550686 11% 64 83324 62%
c O 48.09 78 341 7 10 544 22430 4617 8214 550686 11% 64 83324 62%
c ] 48.73 78 340 8 10 544 22616 4796 8220 550686 11% 65 83324 62%
c { 48.73 78 450 8 10 544 22616 4796 8220 550686 11% 10 83324 62%
c - 49.28 78 438 8 11 837 23475 3549 8234 550686 11% 12 83324 62%
c u 50.02 78 484 8 11 1120 24650 4567 8264 550686 10% 15 83324 62%
c v 50.44 78 484 8 11 1120 24650 4567 8264 550686 10% 15 83324 62%
c w 51.02 82 484 8 11 1120 24650 8834 8313 546367 10% 15 83323 62%
c = 51.70 83 484 8 11 1120 24650 8834 8327 546367 10% 15 83316 62%
c d 51.73 83 484 8 11 1120 24650 8834 8315 546365 10% 15 83316 62%
c t 51.77 83 484 8 11 1120 24650 8834 8266 546365 10% 15 83316 62%
c i 51.77 83 484 8 11 1120 24650 8834 8266 546365 10% 15 83316 62%
c - 53.87 83 536 8 12 1302 26792 8386 8275 546365 10% 18 83316 62%
c } 53.99 83 544 9 12 1302 28776 10315 8290 546365 9% 17 83316 62%
c [ 53.99 83 340 9 12 1302 28776 10315 8290 546365 11% 65 83316 62%
c - 54.49 83 366 9 13 1303 30257 8826 8292 546365 10% 64 83316 62%
c
c  seconds    switched    conflicts      irredundant    variables
c         MB    reductions     redundant          trail      remaining
c           level    restarts         binary          glue
c
c ] 57.15 83 360 10 13 1304 31301 9862 8292 546365 11% 66 83316 62%
c { 57.15 83 544 10 13 1304 31301 9862 8292 546365 9% 17 83316 62%
c s 57.55 83 570 10 13 1414 33406 11880 8328 546329 8% 16 83316 62%
c e 58.09 83 570 10 13 1414 33406 11880 4859 550766 8% 16 81355 60%
c 2 58.09 83 570 10 13 1414 33406 11880 4858 550766 8% 16 81355 60%
c s 58.11 83 570 10 13 1414 33406 11880 4895 549642 8% 16 81355 60%
c e 58.14 83 570 10 13 1414 33406 11880 4887 549648 8% 16 81353 60%
c ^ 58.14 83 570 10 13 1414 33406 11880 4887 549648 8% 16 81353 60%
c - 58.19 83 589 10 14 1414 33863 7786 4895 549648 8% 16 81353 60%
c - 58.47 83 596 10 15 1414 37604 8841 4905 549648 6% 15 81353 60%
c u 58.80 83 572 10 15 1414 39332 10516 4936 549648 6% 14 81352 60%
c v 59.14 85 572 10 15 1414 39332 10516 4936 549648 6% 14 81352 60%
c w 59.45 85 572 10 15 1414 39332 10680 4989 549352 6% 14 81346 60%
c = 59.99 85 572 10 15 1414 39332 10680 5037 549232 6% 14 81322 60%
c d 60.02 85 572 10 15 1414 39332 10656 5012 549194 6% 14 81322 60%
c t 60.07 85 572 10 15 1414 39332 10656 4968 549194 6% 14 81322 60%
c i 60.07 85 572 10 15 1414 39332 10656 4968 549194 6% 14 81322 60%
c } 60.11 85 597 11 15 1414 39928 11226 4972 549194 6% 14 81322 60%
c [ 60.11 85 360 11 15 1414 39928 11226 4972 549194 11% 66 81322 60%
c B 60.11 85 360 11 15 1414 39928 11226 4972 549194 11% 66 81322 60%
c
c  seconds    switched    conflicts       irredundant    variables
c         MB    reductions      redundant          trail      remaining
c           level    restarts          binary          glue
c
c ] 61.05 85 356 12 15 1414 40660 11956 4973 549194 11% 68 81322 60%
c { 61.05 85 597 12 15 1414 40660 11956 4973 549194 6% 14 81322 60%
c - 61.12 85 613 12 16 1415 41477 9886 4965 549194 6% 14 81322 60%
c - 61.52 85 593 12 17 1415 45477 10665 4971 549194 5% 13 81322 60%
c - 61.96 85 562 12 18 1415 49600 11407 4972 549194 5% 12 81322 60%
c } 62.24 85 544 13 18 1415 52140 13928 4972 549194 4% 12 81322 60%
c [ 62.24 85 356 13 18 1415 52140 13928 4972 549194 11% 68 81322 60%
c W 62.31 85 356 13 18 1415 52150 13938 4972 549194 11% 68 81322 60%
c ] 63.56 85 355 14 18 1415 52391 14179 4972 549194 11% 69 81322 60%
c { 63.56 85 544 14 18 1415 52391 14179 4972 549194 4% 12 81322 60%
c i 63.60 85 563 14 18 1416 52862 14613 4982 549194 4% 12 81321 60%
c i 63.76 85 565 14 18 1445 53154 14885 4982 549194 4% 12 81320 60%
c - 65.19 85 555 14 19 1508 53842 12440 4982 549194 4% 12 81320 60%
c - 66.77 85 547 14 20 1563 58201 13447 5019 549194 4% 12 81320 60%
c u 67.06 85 548 14 20 1563 58235 13446 5101 549086 4% 12 81320 60%
c v 67.38 85 548 14 20 1563 58235 13445 5102 549086 4% 12 81320 60%
c w 67.72 85 548 14 20 1563 58235 13518 5143 548972 4% 12 81320 60%
c = 68.30 85 548 14 20 1563 58235 13518 5157 548972 4% 12 81313 60%
c d 68.33 85 548 14 20 1563 58235 13518 5121 548970 4% 12 81311 60%
c t 68.38 85 548 14 20 1563 58235 13518 5046 548970 4% 12 81311 60%
c
c  seconds    switched    conflicts       irredundant   variables
c         MB    reductions      redundant         trail      remaining
c           level    restarts          binary         glue
c
c - 69.85 85 547 14 21 1628 62673 14222 5067 548970 4% 11 81311 60%
c } 73.67 85 545 15 21 1711 67108 18508 5090 548970 4% 11 81311 60%
c [ 73.67 85 355 15 21 1711 67108 18508 5090 548970 11% 69 81311 60%
c I 73.67 85 355 15 21 1711 67108 18508 5090 548970 11% 69 81311 60%
c - 73.69 85 354 15 22 1711 67257 15097 5092 548970 11% 69 81311 60%
c s 77.76 85 345 15 22 1713 69170 17006 5101 548883 11% 73 81311 60%
c e 78.39 64 345 15 22 1713 69170 17006 4493 550065 11% 73 80969 60%
c s 78.40 64 345 15 22 1713 69170 17006 4504 549817 11% 73 80969 60%
c ^ 78.42 64 345 15 22 1713 69170 17006 4504 549817 11% 73 80969 60%
c ] 81.72 75 343 16 22 1713 69721 16341 4505 549817 12% 76 80969 60%
c { 81.72 75 545 16 22 1713 69721 16341 4505 549817 4% 11 80969 60%
c - 81.92 77 570 16 23 1717 71948 14344 4516 549817 4% 11 80969 60%
c - 110.08 79 558 16 24 1928 76743 15289 4549 549817 6% 11 80969 60%
c u 161.97 81 535 16 24 1964 81491 19961 4580 549817 11% 11 80969 60%
c v 164.63 81 535 16 24 1964 81491 19955 4586 549817 11% 11 80969 60%
c w 165.24 81 535 16 24 1964 81491 20199 4630 549529 11% 11 80969 60%
c t 165.86 81 535 16 24 1964 81491 20199 4565 549529 11% 11 80969 60%
c - 166.06 81 537 16 25 1966 81641 16751 4565 549529 11% 11 80969 60%
c - 272.78 81 483 16 26 2040 86641 17685 4565 549529 19% 11 80969 60%
c } 303.57 81 470 17 26 2040 88058 19102 4565 549529 21% 11 80969 60%
c
c  seconds     switched    conflicts       irredundant    variables
c          MB    reductions      redundant          trail      remaining
c            level    restarts          binary          glue
c
c [ 303.57 81 343 17 26 2040 88058 19102 4565 549529 12% 76 80969 60%
c B 303.57 81 343 17 26 2040 88058 19102 4565 549529 12% 76 80969 60%
c - 317.93 81 331 17 27 2042 91742 17885 4569 549529 14% 89 80969 60%
c - 335.59 81 322 17 28 2046 96938 17420 4571 549529 16% 100 80969 60%
c - 348.57 81 315 17 29 2048 102229 17106 4572 549529 16% 104 80969 60%
c - 350.59 81 313 17 30 2052 107614 17308 4581 549529 14% 96 80969 60%
c W 354.09 81 312 17 30 2053 108969 18662 4582 549529 14% 95 80969 60%
c u 355.60 81 311 17 30 2053 109268 18954 4587 549529 14% 95 80969 60%
c v 355.83 81 311 17 30 2053 109268 18954 4587 549529 14% 95 80969 60%
c w 356.45 81 311 17 30 2053 109268 18979 4588 549503 14% 95 80969 60%
c t 357.07 81 311 17 30 2053 109268 18979 4583 549503 14% 95 80969 60%
c - 365.11 81 307 17 31 2054 113093 17624 4585 549503 14% 97 80969 60%
c - 370.32 83 301 17 32 2054 118660 17729 4585 549503 14% 93 80969 60%
c - 378.14 83 306 17 33 2057 124317 17801 4588 549503 14% 92 80969 60%
c s 379.27 83 310 17 33 2059 126772 20242 4591 549499 14% 90 80969 60%
c e 379.95 83 310 17 33 2059 126772 20242 4205 570663 14% 90 74926 56%
c s 380.01 83 310 17 33 2059 126772 20242 4223 570142 14% 90 74926 56%
c e 380.04 83 310 17 33 2059 126772 20242 4221 570153 14% 90 74922 56%
c ^ 380.04 83 310 17 33 2059 126772 20242 4221 570153 14% 90 74922 56%
c - 386.39 84 315 17 34 2061 130062 13467 4221 570153 14% 92 74922 56%
c
c  seconds     switched    conflicts        irredundant    variables
c          MB    reductions       redundant          trail      remaining
c            level    restarts           binary          glue
c
c O 398.32 84 317 17 34 2061 133195 16588 4221 570153 15% 95 74922 56%
c - 401.87 84 321 17 35 2064 135893 14474 4228 570153 15% 93 74922 56%
c u 417.11 84 326 17 35 2068 141728 20278 4230 570153 15% 95 74922 56%
c v 417.28 86 326 17 35 2068 141728 20278 4230 570153 15% 95 74922 56%
c w 417.98 86 326 17 35 2068 141728 20400 4328 569933 15% 95 74922 56%
c t 418.49 86 326 17 35 2068 141728 20400 4268 569933 15% 95 74922 56%
c - 418.51 86 327 17 36 2068 141811 15071 4269 569933 15% 95 74922 56%
c - 431.09 86 333 17 37 2069 147811 14964 4269 569933 16% 98 74922 56%
c - 460.84 86 326 17 38 2069 153893 15326 4269 569933 18% 98 74922 56%
c - 469.40 87 332 17 39 2070 160057 15804 4274 569933 17% 99 74922 56%
c B 469.45 87 333 17 39 2070 160936 16680 4275 569933 17% 98 74922 56%
c ] 489.11 87 335 18 39 2070 164648 20377 4276 569932 18% 103 74922 56%
c { 489.11 87 470 18 39 2070 164648 20377 4276 569932 21% 11 74922 56%
c - 493.66 87 468 18 40 2157 166303 16746 4317 569931 20% 10 74922 56%
c - 580.20 88 415 18 41 2157 172628 18547 4318 569931 25% 10 74922 56%
c - 674.06 88 388 18 42 2158 179032 20575 4324 569931 28% 10 74922 56%
c u 674.37 88 388 18 42 2158 179174 20710 4331 569931 28% 10 74922 56%
c v 676.75 88 388 18 42 2158 179174 20708 4333 569931 28% 10 74922 56%
c w 677.45 88 388 18 42 2158 179174 20809 4338 569825 28% 10 74922 56%
c t 677.96 88 388 18 42 2158 179174 20809 4326 569825 28% 10 74922 56%
c
c  seconds     switched    conflicts        irredundant    variables
c          MB    reductions       redundant          trail      remaining
c            level    restarts           binary          glue
c
c - 764.78 88 365 18 43 2162 185513 22644 4354 569825 31% 10 74922 56%
c } 765.06 90 362 19 43 2162 186994 24123 4355 569825 30% 10 74922 56%
c [ 765.06 90 335 19 43 2162 186994 24123 4355 569825 18% 103 74922 56%
c - 769.64 90 342 19 44 2165 192070 23463 4359 569825 17% 101 74922 56%
c W 773.72 91 342 19 44 2166 192386 23775 4360 569825 17% 100 74922 56%
c - 790.47 91 340 19 45 2168 198706 22796 4368 569824 17% 102 74922 56%
c - 811.30 91 341 19 46 2173 205416 22547 4372 569824 18% 102 74922 56%
c s 819.31 91 343 19 46 2175 209063 26167 4393 569806 18% 101 74922 56%
c e 819.94 67 343 19 46 2175 209063 26167 3863 575460 18% 101 74154 55%
c s 819.96 67 343 19 46 2175 209063 26167 3882 574610 18% 101 74154 55%
c e 820.00 67 343 19 46 2175 209063 26167 3851 574725 18% 101 74138 55%
c ^ 820.00 67 343 19 46 2175 209063 26167 3851 574725 18% 101 74138 55%
c - 829.56 76 348 19 47 2176 212200 19514 3855 574724 18% 104 74138 55%
c - 830.17 77 356 19 48 2176 219056 20272 3856 574724 17% 102 74138 55%
c u 833.06 79 357 19 48 2178 221560 22761 3864 574724 17% 101 74138 55%
c v 833.40 81 357 19 48 2178 221560 22761 3864 574724 17% 101 74138 55%
c w 834.13 83 357 19 48 2178 221560 23030 3917 574402 17% 101 74138 55%
c t 834.62 83 357 19 48 2178 221560 23030 3866 574402 17% 101 74138 55%
c - 843.36 83 357 19 49 2181 225985 21184 3869 574402 17% 101 74138 55%
c I 845.39 83 356 19 49 2182 227738 22919 3870 574402 16% 100 74138 55%
c
c  seconds     switched    conflicts        irredundant    variables
c          MB    reductions       redundant          trail      remaining
c            level    restarts           binary          glue
c
c - 850.31 83 360 19 50 2184 232985 21965 3871 574402 16% 99 74138 55%
c - 865.92 83 366 19 51 2189 240058 21867 3872 574401 16% 99 74138 55%
c - 881.73 83 361 19 52 2191 247199 21720 3874 574400 16% 98 74138 55%
c - 923.05 86 357 19 53 2192 254412 21934 3874 574400 18% 101 74138 55%
c - 923.61 86 359 19 54 2192 261693 22443 3875 574400 17% 97 74138 55%
c B 926.95 86 359 19 54 2192 267180 27911 3876 574400 16% 96 74138 55%
c - 927.08 86 362 19 55 2192 269042 22900 3876 574400 16% 95 74138 55%
c u 927.31 86 362 19 55 2192 269073 22924 3883 574400 16% 95 74138 55%
c v 927.56 86 362 19 55 2192 269073 22923 3884 574400 16% 95 74138 55%
c w 928.30 86 362 19 55 2192 269073 22998 3892 574317 16% 95 74138 55%
c t 928.79 86 362 19 55 2192 269073 22998 3882 574317 16% 95 74138 55%
c - 942.42 86 364 19 56 2198 276458 23863 3887 574317 16% 96 74138 55%
c - 960.04 86 361 19 57 2202 283941 23694 3888 574317 16% 97 74138 55%
c - 982.19 86 362 19 58 2206 291490 24054 3889 574317 16% 97 74138 55%
c - 995.86 86 360 19 59 2207 299105 24632 3894 574317 16% 96 74138 55%
c ] 996.01 86 360 20 59 2207 299163 24689 3894 574317 16% 96 74138 55%
c { 996.01 86 362 20 59 2207 299163 24689 3894 574317 30% 10 74138 55%
c - 1145.31 88 332 20 60 2482 306787 27444 3896 574316 36% 10 74138 55%
c i 1267.18 88 307 20 60 2482 311923 32561 3909 574315 40% 9 74134 55%
c - 1327.34 88 298 20 61 2484 314532 27396 3914 574314 42% 9 74134 55%
c
c   seconds     switched    conflicts        irredundant   variables
c           MB    reductions       redundant          trail     remaining
c             level    restarts           binary         glue
c
c i 1331.79 88 297 20 61 2484 314715 27571 3921 574314 42% 9 74133 55%
c 2 1392.96 89 288 20 61 2487 318108 30948 3917 574314 44% 9 74133 55%
c s 1392.97 89 288 20 61 2487 318108 30948 3951 573902 44% 9 74133 55%
c e 1394.63 100 288 20 61 2487 318108 30948 3282 759690 44% 9 60092 45%
c 2 1394.63 100 288 20 61 2487 318108 30948 3277 759690 44% 9 60092 45%
c s 1394.97 102 288 20 61 2487 318108 30948 3294 757855 44% 9 60092 45%
c e 1395.05 102 288 20 61 2487 318108 30948 3290 758174 44% 9 60064 45%
c ! 1395.05 102 288 20 61 2487 318108 30948 3290 758174 44% 9 60064 45%
c d 1435.26 110 287 20 61 2851 321731 20865 3386 758106 43% 10 60062 45%
c d 1435.28 110 287 20 61 2851 321731 20805 3348 758087 43% 10 60050 45%
c u 1435.71 110 287 20 61 2851 321731 20530 3623 758087 43% 10 60050 45%
c v 1437.06 110 287 20 61 2851 321731 19099 5054 758087 43% 10 60050 45%
c w 1438.28 112 287 20 61 2851 321731 19577 5217 757420 43% 10 60049 45%
c = 1439.09 112 287 20 61 2851 321731 19577 5227 757412 43% 10 60044 45%
c d 1439.14 112 287 20 61 2851 321731 19571 5069 757411 43% 10 60043 45%
c t 1439.21 112 287 20 61 2851 321731 19571 3344 757411 43% 10 60043 45%
c i 1439.21 112 287 20 61 2851 321731 19571 3344 757411 43% 10 60043 45%
c - 1449.88 111 286 20 62 2925 322344 16832 3345 757411 43% 10 60043 45%
c } 1517.79 111 278 21 62 3171 325905 20322 3350 757409 44% 10 60043 45%
c [ 1517.79 111 360 21 62 3171 325905 20322 3350 757409 16% 96 60043 45%
c
c   seconds      switched    conflicts        irredundant    variables
c            MB    reductions       redundant          trail      remaining
c              level    restarts           binary          glue
c
c W 1518.59 111 360 21 62 3171 325905 20322 3350 757409 16% 96 60043 45%
c - 1532.86 111 360 21 63 3174 330222 19558 3351 757409 16% 97 60043 45%
c - 1548.58 111 363 21 64 3177 338161 20290 3351 757409 16% 97 60043 45%
c - 1577.48 111 363 21 65 3183 346161 20103 3352 757409 17% 99 60043 45%
c - 1592.06 113 364 21 66 3185 354223 20603 3355 757409 16% 98 60043 45%
c - 1616.74 93 361 21 67 3188 362347 21006 3355 757409 17% 98 60043 45%
c - 1649.62 95 362 21 68 3192 370533 21446 3355 757409 17% 102 60043 45%
c O 1659.07 95 361 21 68 3195 374067 24961 3355 757409 17% 101 60043 45%
c - 1664.49 95 360 21 69 3198 378779 21959 3357 757409 17% 100 60043 45%
c u 1672.18 107 357 21 69 3199 382088 25203 3405 757409 17% 100 60043 45%
c v 1673.10 109 357 21 69 3199 382088 25003 3605 757409 17% 100 60043 45%
c w 1674.31 111 357 21 69 3199 382088 25126 3627 757264 17% 100 60043 45%
c = 1675.07 111 357 21 69 3199 382088 25126 3631 757262 17% 100 60041 45%
c d 1675.12 111 357 21 69 3199 382088 25126 3625 757262 17% 100 60041 45%
c t 1675.19 111 357 21 69 3199 382088 25126 3363 757262 17% 100 60041 45%
c - 1694.87 111 356 21 70 3200 387085 22709 3363 757262 17% 101 60041 45%
c - 1724.55 111 351 21 71 3201 395452 22760 3365 757262 17% 101 60041 45%
c - 1725.66 111 350 21 72 3201 403879 23305 3366 757262 16% 97 60041 45%
c - 1736.71 113 351 21 73 3204 412365 23961 3367 757261 16% 96 60041 45%
c - 1775.49 113 348 21 74 3209 420909 24303 3367 757261 17% 95 60041 45%
c
c   seconds     switched    conflicts        irredundant    variables
c           MB    reductions       redundant          trail      remaining
c             level    restarts           binary          glue
c
c B 1797.21 93 349 21 74 3213 426854 30212 3368 757261 17% 95 60041 45%
c - 1804.36 95 347 21 75 3215 429511 24692 3369 757261 17% 95 60041 45%
c - 1809.42 95 341 21 76 3216 438172 25253 3369 757261 16% 94 60041 45%
c - 1826.48 95 339 21 77 3221 446889 25217 3369 757261 16% 94 60041 45%
c u 1829.59 107 340 21 77 3222 448014 26303 3394 757261 16% 94 60041 45%
c v 1830.21 109 340 21 77 3222 448014 26053 3644 757261 16% 94 60041 45%
c w 1831.42 111 340 21 77 3222 448014 26103 3650 757205 16% 94 60041 45%
c t 1832.16 111 340 21 77 3222 448014 26103 3370 757205 16% 94 60041 45%
c - 1865.57 111 342 21 78 3225 455663 25333 3370 757205 17% 94 60041 45%
c s 1888.53 111 345 21 78 3229 461637 31280 3480 757082 17% 97 60041 45%
c e 1888.61 111 345 21 78 3229 461637 31280 3370 757722 17% 97 59989 45%
c s 1888.62 111 345 21 78 3229 461637 31280 3380 757486 17% 97 59989 45%
c e 1888.67 111 345 21 78 3229 461637 31280 3376 757512 17% 97 59986 45%
c - 1903.85 113 343 21 79 3230 464494 24818 3376 757512 17% 97 59986 45%
c ] 1912.41 113 342 22 79 3230 465783 26105 3376 757512 18% 98 59986 45%
c { 1912.41 113 278 22 79 3230 465783 26105 3376 757512 44% 10 59986 45%
c i 1931.15 115 275 22 79 3247 466755 27053 3388 757511 44% 9 59985 45%
c i 1969.54 111 277 22 79 3262 469281 29514 3401 757511 44% 9 59979 45%
c i 1978.47 113 275 22 79 3262 469715 29935 3409 757511 45% 9 59978 45%
c i 1997.42 113 271 22 79 3262 470853 31045 3417 757511 45% 9 59975 44%
c
c   seconds      switched    conflicts        irredundant   variables
c            MB    reductions       redundant          trail     remaining
c              level    restarts           binary         glue
c
c i 1997.58 113 271 22 79 3263 472747 32892 3424 757508 44% 9 59974 44%
c - 1997.65 113 272 22 80 3263 473383 25427 3402 757508 43% 9 59974 44%
c i 2006.45 113 271 22 80 3263 473797 25824 3411 757508 43% 9 59973 44%
c i 2024.78 113 259 22 80 3263 480653 32316 3426 757508 40% 9 59972 44%
c i 2024.80 113 260 22 80 3263 480781 32430 3430 757507 40% 9 59971 44%
c - 2028.27 113 255 22 81 3263 482328 29733 3415 757507 40% 9 59971 44%
c i 2049.59 117 240 22 81 3263 488788 35824 3430 757507 38% 9 59970 44%
c i 2052.18 117 241 22 81 3264 489551 36546 3440 757506 37% 9 59969 44%
c i 2053.19 117 241 22 81 3264 489655 36644 3445 757506 37% 9 59964 44%
c i 2053.77 117 241 22 81 3264 489701 36686 3448 757506 37% 9 59959 44%
c i 2054.41 117 240 22 81 3264 489749 36729 3451 757506 37% 9 59907 44%
c i 2054.42 117 241 22 81 3264 489763 36734 3455 757506 37% 9 59906 44%
c } 2054.45 117 241 22 81 3264 489766 36734 3456 757506 37% 9 51 0%
c 0 2054.45 117 241 22 81 3264 489766 36734 3456 757506 37% 9 51 0%
c
c ---- [ result ] ------------------------------------------------------------
c
s UNSATISFIABLE
c
c ---- [ profiling ] ---------------------------------------------------------
c
c        2005.68   97.63 %  search
c        1186.41   57.75 %  focused
c         819.26   39.88 %  stable
c          48.56    2.36 %  simplify
c          34.46    1.68 %  probe
c          24.63    1.20 %  vivify
c           7.65    0.37 %  sweep
c           7.58    0.37 %  walking
c           6.52    0.32 %  eliminate
c           1.73    0.08 %  substitute
c           1.26    0.06 %  reduce
c           0.72    0.04 %  subsume
c           0.30    0.01 %  transitive
c           0.22    0.01 %  parse
c           0.15    0.01 %  backbone
c           0.04    0.00 %  warmup
c =============================================
c        2054.45  100.00 %  total
c
c ---- [ statistics ] --------------------------------------------------------
c
c chronological:                         2379                0 %  conflicts
c conflicts:                           489766              238.39 per second
c decisions:                          1974446                4.03 per conflict
c eliminated:                           62139               46 %  variables
c jumped_reasons:                    13701627                0 %  propagations
c propagations:                    6039622157          2939777    per second
c queue_decisions:                     876647               44 %  decision
c random_decisions:                    511001               26 %  decision
c random_sequences:                        65             7535    interval
c reductions:                              81             6046    interval
c rephased:                                19            25777    interval
c restarts:                              3264              150.05 interval
c score_decisions:                     586798               30 %  decision
c strengthened:                         17073                0 %  checks
c substituted:                           2938                2 %  variables
c subsumed:                             24125                0 %  checks
c switched:                                22            22262    interval
c vivified:                             31892                0 %  checks
c vivify_checks:                      7323935           488262    per vivify
c vivify_units:                            33                0 %  variables
c walk_improved:                            6              100 %  walks
c walks:                                    6            81628    interval
c
c ---- [ resources ] ---------------------------------------------------------
c
c maximum-resident-set-size:        122773504 bytes        117 MB
c process-time:                        34m 14s            2054.45 seconds
c
c ---- [ shutting down ] -----------------------------------------------------
c
c exit 20
